20171229 388237.22 278248.14
20170630 388237.22 228414.25
20170628 388237.22 228414.25
20170220 388237.22 193387.98
20161228 388237.22 163421.93
20161012 338403.34 163421.93
20160711 246113.17 163421.93
20160627 246113.17 137504.00
20160519 211086.90 137504.00
20160219 105543.45 68752.00
